% Auto-generated by scripts/generate_dzn.py
% problem_type   = regex
% instance       = regex_5
% source_json    = instances_json/1_medium_blowup/regex_5.json
% blowup         = 2.35
% representation = DFA

mode = 0;

var_count = 19;
n_constraints = 2;
Q = 34;
S = 2;
q0 = [1, 1];
F = [{22, 23, 24, 25, 26, 27, 28, 29, 30, 31, 32, 33, 34}, {12}];
weights = [6, 3, 9, 4, 5, 6, 6, 10, 7, 2, 8, 4, 8, 7, 6, 4, 8, 8, 1];
d_dfa = array3d(1..2, 1..34, 1..2, [
  % k = 1
    2, 1,
    2, 3,
    5, 4,
    7, 6,
    7, 8,
    10, 9,
    10, 11,
    13, 12,
    15, 14,
    15, 16,
    18, 17,
    20, 19,
    20, 21,
    23, 22,
    23, 24,
    26, 25,
    28, 27,
    28, 29,
    31, 30,
    31, 32,
    34, 33,
    2, 1,
    2, 3,
    5, 4,
    7, 6,
    7, 8,
    10, 9,
    10, 11,
    13, 12,
    15, 14,
    15, 16,
    18, 17,
    20, 19,
    20, 21,

  % k = 2
    1, 2,
    2, 3,
    3, 4,
    4, 5,
    5, 6,
    6, 7,
    7, 8,
    8, 9,
    9, 10,
    10, 11,
    11, 12,
    12, 13,
    13, 13,
    0, 0,
    0, 0,
    0, 0,
    0, 0,
    0, 0,
    0, 0,
    0, 0,
    0, 0,
    0, 0,
    0, 0,
    0, 0,
    0, 0,
    0, 0,
    0, 0,
    0, 0,
    0, 0,
    0, 0,
    0, 0,
    0, 0,
    0, 0,
    0, 0
]);
d_nfa = array3d(1..2, 1..34, 1..2, [
  % k = 1
    {}, {},
    {}, {},
    {}, {},
    {}, {},
    {}, {},
    {}, {},
    {}, {},
    {}, {},
    {}, {},
    {}, {},
    {}, {},
    {}, {},
    {}, {},
    {}, {},
    {}, {},
    {}, {},
    {}, {},
    {}, {},
    {}, {},
    {}, {},
    {}, {},
    {}, {},
    {}, {},
    {}, {},
    {}, {},
    {}, {},
    {}, {},
    {}, {},
    {}, {},
    {}, {},
    {}, {},
    {}, {},
    {}, {},
    {}, {},

  % k = 2
    {}, {},
    {}, {},
    {}, {},
    {}, {},
    {}, {},
    {}, {},
    {}, {},
    {}, {},
    {}, {},
    {}, {},
    {}, {},
    {}, {},
    {}, {},
    {}, {},
    {}, {},
    {}, {},
    {}, {},
    {}, {},
    {}, {},
    {}, {},
    {}, {},
    {}, {},
    {}, {},
    {}, {},
    {}, {},
    {}, {},
    {}, {},
    {}, {},
    {}, {},
    {}, {},
    {}, {},
    {}, {},
    {}, {},
    {}, {}
]);
